min: c;

c = 3.68451178364081 * u5_t4_h2 + 3.68451178364081 * u5_t7_h2 + 3.45691169177382 * u5_t4_h3 + 3.45691169177382 * u5_t7_h3 + 3.40237437467646 * u5_t1_h4 + 3.40237437467646 * u5_t3_h4 + 3.40237437467646 * u5_t4_h4 + 3.40237437467646 * u5_t7_h4 + 3.32094219427881 * u5_t1_h5 + 3.32094219427881 * u5_t3_h5 + 3.32094219427881 * u5_t4_h5 + 3.32094219427881 * u5_t7_h5 + 3.86999186284685 * u5_t1_h6 + 3.86999186284685 * u5_t3_h6 + 3.86999186284685 * u5_t4_h6 + 3.86999186284685 * u5_t6_h6 + 3.86999186284685 * u5_t7_h6 + 4.20636311522058 * u5_t1_h7 + 4.20636311522058 * u5_t3_h7 + 4.20636311522058 * u5_t4_h7 + 4.20636311522058 * u5_t6_h7 + 5.57398754306493 * u5_t1_h8 + 5.57398754306493 * u5_t3_h8 + 5.57398754306493 * u5_t4_h8 + 5.57398754306493 * u5_t6_h8 + 4.80019187627004 * u5_t1_h9 + 4.80019187627004 * u5_t3_h9 + 4.80019187627004 * u5_t4_h9 + 4.80019187627004 * u5_t6_h9 + 5.11288453326342 * u5_t1_h10 + 5.11288453326342 * u5_t3_h10 + 5.11288453326342 * u5_t4_h10 + 5.11288453326342 * u5_t6_h10 + 3.52462872825933 * u5_t1_h11 + 3.52462872825933 * u5_t3_h11 + 3.52462872825933 * u5_t4_h11 + 3.52462872825933 * u5_t6_h11 + 6.5945838227744 * u5_t1_h12 + 6.5945838227744 * u5_t3_h12 + 6.5945838227744 * u5_t4_h12 + 6.5945838227744 * u5_t6_h12 + 4.48608901774641 * u5_t1_h13 + 4.48608901774641 * u5_t3_h13 + 4.48608901774641 * u5_t4_h13 + 4.48608901774641 * u5_t6_h13 + 4.48608901774641 * u5_t8_h13 + 5.39298743877051 * u5_t1_h14 + 5.39298743877051 * u5_t3_h14 + 5.39298743877051 * u5_t4_h14 + 5.39298743877051 * u5_t6_h14 + 5.39298743877051 * u5_t8_h14 + 6.11184805486147 * u5_t1_h15 + 6.11184805486147 * u5_t3_h15 + 6.11184805486147 * u5_t4_h15 + 6.11184805486147 * u5_t6_h15 + 6.11184805486147 * u5_t8_h15 + 6.11184805486147 * u5_t9_h15 + 5.41970288296053 * u5_t1_h16 + 5.41970288296053 * u5_t3_h16 + 5.41970288296053 * u5_t4_h16 + 5.41970288296053 * u5_t5_h16 + 5.41970288296053 * u5_t6_h16 + 5.41970288296053 * u5_t8_h16 + 5.41970288296053 * u5_t9_h16 + 6.59559584811664 * u5_t1_h17 + 6.59559584811664 * u5_t5_h17 + 6.59559584811664 * u5_t6_h17 + 6.59559584811664 * u5_t8_h17 + 6.59559584811664 * u5_t9_h17 + 6.59559584811664 * u5_t10_h17 + 6.50636482703784 * u5_t1_h18 + 6.50636482703784 * u5_t2_h18 + 6.50636482703784 * u5_t5_h18 + 6.50636482703784 * u5_t6_h18 + 6.50636482703784 * u5_t9_h18 + 6.50636482703784 * u5_t10_h18 + 5.96745948913791 * u5_t1_h19 + 5.96745948913791 * u5_t2_h19 + 5.96745948913791 * u5_t5_h19 + 5.96745948913791 * u5_t9_h19 + 5.96745948913791 * u5_t10_h19 + 5.46663546580134 * u5_t1_h20 + 5.46663546580134 * u5_t2_h20 + 5.46663546580134 * u5_t5_h20 + 5.46663546580134 * u5_t9_h20 + 5.46663546580134 * u5_t10_h20 + 5.31061806778933 * u5_t2_h21 + 5.31061806778933 * u5_t5_h21 + 5.31061806778933 * u5_t9_h21 + 5.31061806778933 * u5_t10_h21 + 5.29273776731031 * u5_t2_h22 + 5.29273776731031 * u5_t5_h22 + 5.29273776731031 * u5_t9_h22 + 5.29273776731031 * u5_t10_h22 + 5.91240651330332 * u5_t5_h23 + 5.91240651330332 * u5_t9_h23 + 5.91240651330332 * u5_t10_h23;
0 <= u5_t1_h4 <= 1;
0 <= u5_t1_h5 <= 1;
0 <= u5_t1_h6 <= 1;
0 <= u5_t1_h7 <= 1;
0 <= u5_t1_h8 <= 1;
0 <= u5_t1_h9 <= 1;
0 <= u5_t1_h10 <= 1;
0 <= u5_t1_h11 <= 1;
0 <= u5_t1_h12 <= 1;
0 <= u5_t1_h13 <= 1;
0 <= u5_t1_h14 <= 1;
0 <= u5_t1_h15 <= 1;
0 <= u5_t1_h16 <= 1;
0 <= u5_t1_h17 <= 1;
0 <= u5_t1_h18 <= 1;
0 <= u5_t1_h19 <= 1;
0 <= u5_t1_h20 <= 1;
u5_t1_h4 + u5_t1_h5 + u5_t1_h6 + u5_t1_h7 + u5_t1_h8 + u5_t1_h9 + u5_t1_h10 + u5_t1_h11 + u5_t1_h12 + u5_t1_h13 + u5_t1_h14 + u5_t1_h15 + u5_t1_h16 + u5_t1_h17 + u5_t1_h18 + u5_t1_h19 + u5_t1_h20 = 1;
0 <= u5_t2_h18 <= 1;
0 <= u5_t2_h19 <= 1;
0 <= u5_t2_h20 <= 1;
0 <= u5_t2_h21 <= 1;
0 <= u5_t2_h22 <= 1;
u5_t2_h18 + u5_t2_h19 + u5_t2_h20 + u5_t2_h21 + u5_t2_h22 = 3;
0 <= u5_t3_h4 <= 1;
0 <= u5_t3_h5 <= 1;
0 <= u5_t3_h6 <= 1;
0 <= u5_t3_h7 <= 1;
0 <= u5_t3_h8 <= 1;
0 <= u5_t3_h9 <= 1;
0 <= u5_t3_h10 <= 1;
0 <= u5_t3_h11 <= 1;
0 <= u5_t3_h12 <= 1;
0 <= u5_t3_h13 <= 1;
0 <= u5_t3_h14 <= 1;
0 <= u5_t3_h15 <= 1;
0 <= u5_t3_h16 <= 1;
u5_t3_h4 + u5_t3_h5 + u5_t3_h6 + u5_t3_h7 + u5_t3_h8 + u5_t3_h9 + u5_t3_h10 + u5_t3_h11 + u5_t3_h12 + u5_t3_h13 + u5_t3_h14 + u5_t3_h15 + u5_t3_h16 = 1;
0 <= u5_t4_h2 <= 1;
0 <= u5_t4_h3 <= 1;
0 <= u5_t4_h4 <= 1;
0 <= u5_t4_h5 <= 1;
0 <= u5_t4_h6 <= 1;
0 <= u5_t4_h7 <= 1;
0 <= u5_t4_h8 <= 1;
0 <= u5_t4_h9 <= 1;
0 <= u5_t4_h10 <= 1;
0 <= u5_t4_h11 <= 1;
0 <= u5_t4_h12 <= 1;
0 <= u5_t4_h13 <= 1;
0 <= u5_t4_h14 <= 1;
0 <= u5_t4_h15 <= 1;
0 <= u5_t4_h16 <= 1;
u5_t4_h2 + u5_t4_h3 + u5_t4_h4 + u5_t4_h5 + u5_t4_h6 + u5_t4_h7 + u5_t4_h8 + u5_t4_h9 + u5_t4_h10 + u5_t4_h11 + u5_t4_h12 + u5_t4_h13 + u5_t4_h14 + u5_t4_h15 + u5_t4_h16 = 3;
0 <= u5_t5_h16 <= 1;
0 <= u5_t5_h17 <= 1;
0 <= u5_t5_h18 <= 1;
0 <= u5_t5_h19 <= 1;
0 <= u5_t5_h20 <= 1;
0 <= u5_t5_h21 <= 1;
0 <= u5_t5_h22 <= 1;
0 <= u5_t5_h23 <= 1;
u5_t5_h16 + u5_t5_h17 + u5_t5_h18 + u5_t5_h19 + u5_t5_h20 + u5_t5_h21 + u5_t5_h22 + u5_t5_h23 = 2;
0 <= u5_t6_h6 <= 1;
0 <= u5_t6_h7 <= 1;
0 <= u5_t6_h8 <= 1;
0 <= u5_t6_h9 <= 1;
0 <= u5_t6_h10 <= 1;
0 <= u5_t6_h11 <= 1;
0 <= u5_t6_h12 <= 1;
0 <= u5_t6_h13 <= 1;
0 <= u5_t6_h14 <= 1;
0 <= u5_t6_h15 <= 1;
0 <= u5_t6_h16 <= 1;
0 <= u5_t6_h17 <= 1;
0 <= u5_t6_h18 <= 1;
u5_t6_h6 + u5_t6_h7 + u5_t6_h8 + u5_t6_h9 + u5_t6_h10 + u5_t6_h11 + u5_t6_h12 + u5_t6_h13 + u5_t6_h14 + u5_t6_h15 + u5_t6_h16 + u5_t6_h17 + u5_t6_h18 = 2;
0 <= u5_t7_h2 <= 1;
0 <= u5_t7_h3 <= 1;
0 <= u5_t7_h4 <= 1;
0 <= u5_t7_h5 <= 1;
0 <= u5_t7_h6 <= 1;
u5_t7_h2 + u5_t7_h3 + u5_t7_h4 + u5_t7_h5 + u5_t7_h6 = 1;
0 <= u5_t8_h13 <= 1;
0 <= u5_t8_h14 <= 1;
0 <= u5_t8_h15 <= 1;
0 <= u5_t8_h16 <= 1;
0 <= u5_t8_h17 <= 1;
u5_t8_h13 + u5_t8_h14 + u5_t8_h15 + u5_t8_h16 + u5_t8_h17 = 3;
0 <= u5_t9_h15 <= 1;
0 <= u5_t9_h16 <= 1;
0 <= u5_t9_h17 <= 1;
0 <= u5_t9_h18 <= 1;
0 <= u5_t9_h19 <= 1;
0 <= u5_t9_h20 <= 1;
0 <= u5_t9_h21 <= 1;
0 <= u5_t9_h22 <= 1;
0 <= u5_t9_h23 <= 1;
u5_t9_h15 + u5_t9_h16 + u5_t9_h17 + u5_t9_h18 + u5_t9_h19 + u5_t9_h20 + u5_t9_h21 + u5_t9_h22 + u5_t9_h23 = 1;
0 <= u5_t10_h17 <= 1;
0 <= u5_t10_h18 <= 1;
0 <= u5_t10_h19 <= 1;
0 <= u5_t10_h20 <= 1;
0 <= u5_t10_h21 <= 1;
0 <= u5_t10_h22 <= 1;
0 <= u5_t10_h23 <= 1;
u5_t10_h17 + u5_t10_h18 + u5_t10_h19 + u5_t10_h20 + u5_t10_h21 + u5_t10_h22 + u5_t10_h23 = 1;
